words_hard_train/1552.qaiger
aag 16 7 0 1 9
2
4
8
12
14
18
22
33
6 3 5
10 6 9
16 12 14
20 16 18
24 21 22
26 10 25
28 6 23
30 29 8
32 27 31
i0 1 x2[0]
i1 1 x2[1]
i2 1 x2[2]
i3 2 y2[4]
i4 2 y2[5]
i5 2 y2[6]
i6 2 y2[7]
o0 bv[0]
c
simplified
  >
    subtract
      >> 4
        2 y2
      << 5
        1 x2
    invert
      1
