words_hard_train/1552.qaiger.qdimacs
p cnf 16 28
a 1 2 4 0
e 3 5 6 7 8 9 10 11 12 13 14 15 16 0
1 2 3 0
-1 -3 0
-2 -3 0
-3 4 5 0
3 -5 0
-4 -5 0
-6 -7 8 0
6 -8 0
7 -8 0
-8 -9 10 0
8 -10 0
9 -10 0
10 -11 12 0
-10 -12 0
11 -12 0
-5 12 13 0
5 -13 0
-12 -13 0
-3 11 14 0
3 -14 0
-11 -14 0
14 -4 15 0
-14 -15 0
4 -15 0
13 15 16 0
-13 -16 0
-15 -16 0
-16 0
